unsat
(define-fun verifier.error ((x0 Bool) (x1 Bool) (x2 Bool)) Bool (or x0 (not x0)))
(define-fun mainventry ((x0 Int)) Bool (= x0 x0))
(define-fun mainvverifier.error.split () Bool false)
(define-fun mainventry!_BAD () Bool true)
